20	5
0	10	1	8	6	9	3	4	2	7	10	5
1	2	19	15
2	3	17	13	11
3	3	13	17	19
4	3	17	11	13
5	1	19
6	2	17	12
7	2	14	18
8	2	17	18
9	2	11	16
10	2	18	17
11	1	19
12	0
13	1	15
14	1	20
15	1	12
16	2	17	19
17	1	14
18	1	20
19	1	18
20	1	21
21	0
0	0	0	0	0	0	0
1	9	5	4	3	1	4
2	2	3	4	3	2	5
3	10	4	5	4	4	5
4	10	1	2	4	5	2
5	6	1	3	1	3	1
6	2	1	4	5	4	2
7	6	4	3	1	5	2
8	2	4	5	4	5	4
9	9	5	3	2	2	5
10	1	5	4	3	2	3
11	6	4	3	2	1	2
12	2	3	1	2	4	2
13	10	5	2	3	5	3
14	6	4	3	4	1	5
15	2	5	2	1	2	1
16	8	5	2	1	5	4
17	1	4	5	2	2	2
18	10	5	2	1	4	1
19	8	3	4	1	4	4
20	8	5	1	3	4	1
21	0	0	0	0	0	0
5	5	5	5	5
